(set-info :source |printed by MathSAT|)
(declare-fun |.x{420}| () Int)
(declare-fun |.x{433}| () Int)
(declare-fun |.y{21}| () Int)
(declare-fun |.y{39}| () Int)
(declare-fun |.y{22}| () Int)
(declare-fun |.y{40}| () Int)
(declare-fun |.x{421}| () (Array Int Int))
(declare-fun |.x{434}| () (Array Int Int))
(declare-fun |.x{422}| () Int)
(declare-fun |.x{435}| () Int)
(declare-fun |.x{423}| () (Array Int Int))
(declare-fun |.x{436}| () (Array Int Int))
(declare-fun |.x{424}| () Int)
(declare-fun |.x{432}| () Int)
(declare-fun |.x{425}| () Int)
(declare-fun |.x{437}| () Int)
(declare-fun |.y{23}| () Int)
(declare-fun |.y{41}| () Int)
(declare-fun |.y{24}| () Int)
(declare-fun |.y{42}| () Int)
(declare-fun |.y{25}| () Int)
(declare-fun |.y{43}| () Int)
(declare-fun |.y{26}| () Int)
(declare-fun |.y{44}| () Int)
(declare-fun |.x{426}| () (Array Int Int))
(declare-fun |.y{45}| () (Array Int Int))
(declare-fun |.y{27}| () (Array Int Int))
(declare-fun |.y{46}| () (Array Int Int))
(declare-fun |.y{28}| () (Array Int Int))
(declare-fun |.y{47}| () (Array Int Int))
(declare-fun |.y{29}| () (Array Int Int))
(declare-fun |.y{48}| () (Array Int Int))
(declare-fun |.y{30}| () (Array Int Int))
(declare-fun |.y{49}| () (Array Int Int))
(declare-fun |.x{427}| () Int)
(declare-fun |.y{50}| () Int)
(declare-fun |.y{31}| () Int)
(declare-fun |.y{51}| () Int)
(declare-fun |.y{32}| () Int)
(declare-fun |.y{52}| () Int)
(declare-fun |.y{33}| () Int)
(declare-fun |.y{53}| () Int)
(declare-fun |.y{34}| () Int)
(declare-fun |.y{54}| () Int)
(declare-fun |.y{35}| () (Array Int Int))
(declare-fun |.y{55}| () (Array Int Int))
(declare-fun |.y{36}| () (Array Int Int))
(declare-fun |.y{56}| () (Array Int Int))
(declare-fun |.y{37}| () (Array Int Int))
(declare-fun |.y{57}| () (Array Int Int))
(declare-fun |.y{38}| () (Array Int Int))
(declare-fun |.y{58}| () (Array Int Int))
(declare-fun |.loc{4}| () Bool)
(declare-fun |.loc{7}| () Bool)
(declare-fun |.loc{5}| () Bool)
(declare-fun |.loc{8}| () Bool)
(declare-fun |.loc{6}| () Bool)
(declare-fun |.loc{9}| () Bool)
(declare-fun |.x{447}| () Int)
(declare-fun |.x{67}| () Int)
(declare-fun |.x{449}| () Int)
(declare-fun |.x{473}| () Int)
(declare-fun |.x{471}| () Int)
(define-fun .def_60 () Bool (! |.loc{4}| :next |.loc{7}|))
(define-fun .def_159 () Bool (not .def_60))
(define-fun .def_62 () Bool (! |.loc{5}| :next |.loc{8}|))
(define-fun .def_77 () Bool (not .def_62))
(define-fun .def_480 () Bool (and .def_77 .def_159))
(define-fun .def_64 () Bool (! |.loc{6}| :next |.loc{9}|))
(define-fun .def_97 () Bool (not .def_64))
(define-fun .def_481 () Bool (! (and .def_97 .def_480) :init true))
(define-fun .def_14 () (Array Int Int) (! |.x{421}| :next |.x{434}|))
(define-fun .def_476 () Bool (= .def_14 |.x{434}|))
(define-fun .def_20 () Int (! |.x{424}| :next |.x{432}|))
(define-fun .def_42 () Int (! |.x{427}| :next |.y{50}|))
(define-fun .def_401 () Bool (<= .def_42 .def_20))
(define-fun .def_274 () Bool (= |.x{432}| 0))
(define-fun .def_453 () Bool (and .def_274 .def_401))
(define-fun .def_454 () Bool (and .def_274 .def_453))
(define-fun .def_455 () Bool (and .def_159 .def_454))
(define-fun .def_22 () Int (! |.x{425}| :next |.x{437}|))
(define-fun .def_320 () Bool (= |.x{435}| .def_22))
(define-fun .def_456 () Bool (and .def_320 .def_455))
(define-fun .def_32 () (Array Int Int) (! |.x{426}| :next |.y{45}|))
(define-fun .def_324 () Bool (= |.x{436}| .def_32))
(define-fun .def_457 () Bool (and .def_324 .def_456))
(define-fun .def_327 () Bool (= |.x{437}| .def_42))
(define-fun .def_458 () Bool (and .def_327 .def_457))
(define-fun .def_230 () Bool (<= |.x{449}| 0))
(define-fun .def_231 () Bool (not .def_230))
(define-fun .def_16 () Int (! |.x{422}| :next |.x{435}|))
(define-fun .def_99 () Bool (<= .def_16 0))
(define-fun .def_451 () Bool (or .def_99 .def_231))
(define-fun .def_224 () Int (* (- 1) |.x{449}|))
(define-fun .def_447 () Int (+ .def_20 .def_224))
(define-fun .def_448 () Int (+ .def_16 .def_447))
(define-fun .def_449 () Bool (= .def_448 0))
(define-fun .def_8 () Int (! |.x{420}| :next |.x{433}|))
(define-fun .def_442 () Bool (<= .def_8 0))
(define-fun .def_445 () Bool (not .def_442))
(define-fun .def_80 () Bool (<= |.x{447}| 0))
(define-fun .def_81 () Bool (not .def_80))
(define-fun .def_443 () Bool (or .def_81 .def_442))
(define-fun .def_73 () Int (* (- 1) |.x{447}|))
(define-fun .def_211 () Int (+ .def_20 .def_73))
(define-fun .def_439 () Int (+ .def_8 .def_211))
(define-fun .def_440 () Bool (= .def_439 0))
(define-fun .def_436 () Bool (<= .def_22 .def_20))
(define-fun .def_437 () Bool (not .def_436))
(define-fun .def_18 () (Array Int Int) (! |.x{423}| :next |.x{436}|))
(define-fun .def_432 () Int (select .def_18 |.x{449}|))
(define-fun .def_431 () Int (select .def_14 |.x{447}|))
(define-fun .def_433 () Bool (= .def_431 .def_432))
(define-fun .def_203 () Int (* (- 1) |.x{432}|))
(define-fun .def_204 () Int (+ .def_20 .def_203))
(define-fun .def_205 () Bool (= .def_204 (- 1)))
(define-fun .def_117 () Bool (not .def_99))
(define-fun .def_427 () Bool (and .def_117 .def_205))
(define-fun .def_428 () Bool (and .def_60 .def_427))
(define-fun .def_129 () Bool (= .def_16 |.x{435}|))
(define-fun .def_429 () Bool (and .def_129 .def_428))
(define-fun .def_218 () Bool (= .def_18 |.x{436}|))
(define-fun .def_430 () Bool (and .def_218 .def_429))
(define-fun .def_434 () Bool (and .def_430 .def_433))
(define-fun .def_136 () Bool (= .def_22 |.x{437}|))
(define-fun .def_435 () Bool (and .def_136 .def_434))
(define-fun .def_438 () Bool (and .def_435 .def_437))
(define-fun .def_441 () Bool (and .def_438 .def_440))
(define-fun .def_444 () Bool (and .def_441 .def_443))
(define-fun .def_446 () Bool (and .def_444 .def_445))
(define-fun .def_450 () Bool (and .def_446 .def_449))
(define-fun .def_452 () Bool (and .def_450 .def_451))
(define-fun .def_459 () Bool (or .def_452 .def_458))
(define-fun .def_460 () Bool (and |.loc{7}| .def_459))
(define-fun .def_461 () Bool (and .def_62 .def_460))
(define-fun .def_52 () (Array Int Int) (! |.y{35}| :next |.y{55}|))
(define-fun .def_420 () Bool (= |.y{45}| .def_52))
(define-fun .def_186 () Bool (not |.loc{7}|))
(define-fun .def_417 () Bool (and .def_60 .def_186))
(define-fun .def_418 () Bool (and .def_274 .def_417))
(define-fun .def_419 () Bool (and .def_77 .def_418))
(define-fun .def_421 () Bool (and .def_419 .def_420))
(define-fun .def_44 () Int (! |.y{31}| :next |.y{51}|))
(define-fun .def_380 () Bool (<= .def_44 .def_20))
(define-fun .def_422 () Bool (and .def_380 .def_421))
(define-fun .def_423 () Bool (and .def_320 .def_422))
(define-fun .def_304 () Bool (= |.y{50}| .def_44))
(define-fun .def_424 () Bool (and .def_304 .def_423))
(define-fun .def_425 () Bool (and .def_324 .def_424))
(define-fun .def_426 () Bool (and .def_327 .def_425))
(define-fun .def_462 () Bool (or .def_426 .def_461))
(define-fun .def_402 () Bool (not .def_401))
(define-fun .def_229 () Bool (<= .def_22 0))
(define-fun .def_236 () Bool (not .def_229))
(define-fun .def_400 () Bool (and .def_117 .def_236))
(define-fun .def_403 () Bool (and .def_400 .def_402))
(define-fun .def_404 () Bool (and .def_205 .def_403))
(define-fun .def_240 () Bool (= .def_42 |.y{50}|))
(define-fun .def_405 () Bool (and .def_240 .def_404))
(define-fun .def_406 () Bool (and .def_186 .def_405))
(define-fun .def_407 () Bool (and .def_129 .def_406))
(define-fun .def_408 () Bool (and .def_62 .def_407))
(define-fun .def_409 () Bool (and .def_218 .def_408))
(define-fun .def_410 () Bool (and .def_159 .def_409))
(define-fun .def_411 () Bool (and .def_136 .def_410))
(define-fun .def_207 () Int (select .def_18 |.x{447}|))
(define-fun .def_208 () (Array Int Int) (store .def_32 |.x{449}| .def_207))
(define-fun .def_209 () Bool (= |.y{45}| .def_208))
(define-fun .def_412 () Bool (and .def_209 .def_411))
(define-fun .def_212 () Int (+ .def_16 .def_211))
(define-fun .def_213 () Bool (= .def_212 0))
(define-fun .def_413 () Bool (and .def_213 .def_412))
(define-fun .def_216 () Bool (or .def_81 .def_99))
(define-fun .def_414 () Bool (and .def_216 .def_413))
(define-fun .def_225 () Int (+ .def_22 .def_224))
(define-fun .def_226 () Int (+ .def_20 .def_225))
(define-fun .def_227 () Bool (= .def_226 0))
(define-fun .def_415 () Bool (and .def_227 .def_414))
(define-fun .def_232 () Bool (or .def_229 .def_231))
(define-fun .def_416 () Bool (and .def_232 .def_415))
(define-fun .def_463 () Bool (or .def_416 .def_462))
(define-fun .def_464 () Bool (and |.loc{8}| .def_463))
(define-fun .def_54 () (Array Int Int) (! |.y{36}| :next |.y{56}|))
(define-fun .def_387 () Bool (= |.y{45}| .def_54))
(define-fun .def_46 () Int (! |.y{32}| :next |.y{52}|))
(define-fun .def_347 () Bool (<= .def_46 .def_20))
(define-fun .def_388 () Bool (and .def_347 .def_387))
(define-fun .def_389 () Bool (and |.loc{7}| .def_388))
(define-fun .def_390 () Bool (and .def_274 .def_389))
(define-fun .def_391 () Bool (and .def_159 .def_390))
(define-fun .def_392 () Bool (and .def_77 .def_391))
(define-fun .def_308 () Bool (= |.y{51}| .def_46))
(define-fun .def_393 () Bool (and .def_308 .def_392))
(define-fun .def_193 () Bool (= .def_52 |.y{55}|))
(define-fun .def_394 () Bool (and .def_193 .def_393))
(define-fun .def_395 () Bool (and .def_320 .def_394))
(define-fun .def_396 () Bool (and .def_304 .def_395))
(define-fun .def_397 () Bool (and .def_324 .def_396))
(define-fun .def_86 () Bool (not |.loc{8}|))
(define-fun .def_398 () Bool (and .def_86 .def_397))
(define-fun .def_399 () Bool (and .def_327 .def_398))
(define-fun .def_465 () Bool (or .def_399 .def_464))
(define-fun .def_381 () Bool (not .def_380))
(define-fun .def_152 () Bool (and .def_77 .def_86))
(define-fun .def_368 () Bool (and .def_60 .def_152))
(define-fun .def_369 () Bool (and .def_193 .def_368))
(define-fun .def_370 () Bool (and .def_117 .def_369))
(define-fun .def_371 () Bool (and .def_209 .def_370))
(define-fun .def_372 () Bool (and .def_205 .def_371))
(define-fun .def_373 () Bool (and .def_213 .def_372))
(define-fun .def_374 () Bool (and .def_216 .def_373))
(define-fun .def_375 () Bool (and .def_129 .def_374))
(define-fun .def_376 () Bool (and .def_218 .def_375))
(define-fun .def_377 () Bool (and |.loc{7}| .def_376))
(define-fun .def_378 () Bool (and .def_136 .def_377))
(define-fun .def_379 () Bool (and .def_227 .def_378))
(define-fun .def_382 () Bool (and .def_379 .def_381))
(define-fun .def_383 () Bool (and .def_232 .def_382))
(define-fun .def_384 () Bool (and .def_236 .def_383))
(define-fun .def_385 () Bool (and .def_240 .def_384))
(define-fun .def_242 () Bool (= .def_44 |.y{51}|))
(define-fun .def_386 () Bool (and .def_242 .def_385))
(define-fun .def_466 () Bool (or .def_386 .def_465))
(define-fun .def_467 () Bool (and .def_64 .def_466))
(define-fun .def_56 () (Array Int Int) (! |.y{37}| :next |.y{57}|))
(define-fun .def_357 () Bool (= |.y{45}| .def_56))
(define-fun .def_352 () Bool (and .def_86 .def_186))
(define-fun .def_353 () Bool (and .def_304 .def_352))
(define-fun .def_354 () Bool (and .def_97 .def_353))
(define-fun .def_355 () Bool (and .def_60 .def_354))
(define-fun .def_356 () Bool (and .def_62 .def_355))
(define-fun .def_358 () Bool (and .def_356 .def_357))
(define-fun .def_48 () Int (! |.y{33}| :next |.y{53}|))
(define-fun .def_278 () Bool (<= .def_48 .def_20))
(define-fun .def_359 () Bool (and .def_278 .def_358))
(define-fun .def_360 () Bool (and .def_308 .def_359))
(define-fun .def_361 () Bool (and .def_193 .def_360))
(define-fun .def_312 () Bool (= |.y{52}| .def_48))
(define-fun .def_362 () Bool (and .def_312 .def_361))
(define-fun .def_196 () Bool (= .def_54 |.y{56}|))
(define-fun .def_363 () Bool (and .def_196 .def_362))
(define-fun .def_364 () Bool (and .def_320 .def_363))
(define-fun .def_365 () Bool (and .def_324 .def_364))
(define-fun .def_366 () Bool (and .def_327 .def_365))
(define-fun .def_367 () Bool (and .def_274 .def_366))
(define-fun .def_468 () Bool (or .def_367 .def_467))
(define-fun .def_348 () Bool (not .def_347))
(define-fun .def_185 () Bool (= .def_46 |.y{52}|))
(define-fun .def_187 () Bool (and .def_185 .def_186))
(define-fun .def_330 () Bool (and .def_77 .def_187))
(define-fun .def_331 () Bool (and .def_86 .def_330))
(define-fun .def_332 () Bool (and .def_64 .def_331))
(define-fun .def_333 () Bool (and .def_159 .def_332))
(define-fun .def_334 () Bool (and .def_193 .def_333))
(define-fun .def_335 () Bool (and .def_196 .def_334))
(define-fun .def_336 () Bool (and .def_117 .def_335))
(define-fun .def_337 () Bool (and .def_205 .def_336))
(define-fun .def_338 () Bool (and .def_209 .def_337))
(define-fun .def_339 () Bool (and .def_213 .def_338))
(define-fun .def_340 () Bool (and .def_129 .def_339))
(define-fun .def_341 () Bool (and .def_216 .def_340))
(define-fun .def_342 () Bool (and .def_218 .def_341))
(define-fun .def_343 () Bool (and .def_136 .def_342))
(define-fun .def_344 () Bool (and .def_227 .def_343))
(define-fun .def_345 () Bool (and .def_232 .def_344))
(define-fun .def_346 () Bool (and .def_236 .def_345))
(define-fun .def_349 () Bool (and .def_346 .def_348))
(define-fun .def_350 () Bool (and .def_240 .def_349))
(define-fun .def_351 () Bool (and .def_242 .def_350))
(define-fun .def_469 () Bool (or .def_351 .def_468))
(define-fun .def_470 () Bool (and |.loc{9}| .def_469))
(define-fun .def_50 () Int (! |.y{34}| :next |.y{54}|))
(define-fun .def_318 () Bool (= |.y{53}| .def_50))
(define-fun .def_58 () (Array Int Int) (! |.y{38}| :next |.y{58}|))
(define-fun .def_314 () Bool (= |.y{45}| .def_58))
(define-fun .def_305 () Bool (and .def_97 .def_304))
(define-fun .def_306 () Bool (and .def_62 .def_305))
(define-fun .def_307 () Bool (and .def_159 .def_306))
(define-fun .def_309 () Bool (and .def_307 .def_308))
(define-fun .def_310 () Bool (and .def_193 .def_309))
(define-fun .def_109 () Bool (not |.loc{9}|))
(define-fun .def_311 () Bool (and .def_109 .def_310))
(define-fun .def_313 () Bool (and .def_311 .def_312))
(define-fun .def_315 () Bool (and .def_313 .def_314))
(define-fun .def_199 () Bool (<= .def_50 .def_20))
(define-fun .def_316 () Bool (and .def_199 .def_315))
(define-fun .def_317 () Bool (and .def_196 .def_316))
(define-fun .def_319 () Bool (and .def_317 .def_318))
(define-fun .def_321 () Bool (and .def_319 .def_320))
(define-fun .def_322 () Bool (and |.loc{7}| .def_321))
(define-fun .def_323 () Bool (and |.loc{8}| .def_322))
(define-fun .def_325 () Bool (and .def_323 .def_324))
(define-fun .def_221 () Bool (= .def_56 |.y{57}|))
(define-fun .def_326 () Bool (and .def_221 .def_325))
(define-fun .def_328 () Bool (and .def_326 .def_327))
(define-fun .def_329 () Bool (and .def_274 .def_328))
(define-fun .def_471 () Bool (or .def_329 .def_470))
(define-fun .def_279 () Bool (not .def_278))
(define-fun .def_280 () Bool (and .def_185 .def_279))
(define-fun .def_281 () Bool (and .def_97 .def_280))
(define-fun .def_189 () Bool (= .def_48 |.y{53}|))
(define-fun .def_282 () Bool (and .def_189 .def_281))
(define-fun .def_283 () Bool (and .def_60 .def_282))
(define-fun .def_284 () Bool (and .def_62 .def_283))
(define-fun .def_285 () Bool (and .def_193 .def_284))
(define-fun .def_286 () Bool (and .def_109 .def_285))
(define-fun .def_287 () Bool (and .def_196 .def_286))
(define-fun .def_288 () Bool (and .def_117 .def_287))
(define-fun .def_289 () Bool (and .def_205 .def_288))
(define-fun .def_290 () Bool (and .def_209 .def_289))
(define-fun .def_291 () Bool (and .def_213 .def_290))
(define-fun .def_292 () Bool (and .def_129 .def_291))
(define-fun .def_293 () Bool (and .def_216 .def_292))
(define-fun .def_294 () Bool (and .def_218 .def_293))
(define-fun .def_295 () Bool (and |.loc{7}| .def_294))
(define-fun .def_296 () Bool (and |.loc{8}| .def_295))
(define-fun .def_297 () Bool (and .def_221 .def_296))
(define-fun .def_298 () Bool (and .def_136 .def_297))
(define-fun .def_299 () Bool (and .def_227 .def_298))
(define-fun .def_300 () Bool (and .def_232 .def_299))
(define-fun .def_301 () Bool (and .def_236 .def_300))
(define-fun .def_302 () Bool (and .def_240 .def_301))
(define-fun .def_303 () Bool (and .def_242 .def_302))
(define-fun .def_472 () Bool (or .def_303 .def_471))
(define-fun .def_123 () Bool (= .def_8 |.x{433}|))
(define-fun .def_473 () Bool (and .def_123 .def_472))
(define-fun .def_28 () Int (! |.y{25}| :next |.y{43}|))
(define-fun .def_276 () Bool (= .def_28 |.y{53}|))
(define-fun .def_26 () Int (! |.y{24}| :next |.y{42}|))
(define-fun .def_272 () Bool (= .def_26 |.y{52}|))
(define-fun .def_24 () Int (! |.y{23}| :next |.y{41}|))
(define-fun .def_270 () Bool (= .def_24 |.y{51}|))
(define-fun .def_268 () Bool (= .def_22 |.y{50}|))
(define-fun .def_266 () Bool (= .def_20 |.x{437}|))
(define-fun .def_10 () Int (! |.y{21}| :next |.y{39}|))
(define-fun .def_264 () Bool (= |.x{433}| .def_10))
(define-fun .def_40 () (Array Int Int) (! |.y{30}| :next |.y{49}|))
(define-fun .def_261 () Bool (= |.y{45}| .def_40))
(define-fun .def_38 () (Array Int Int) (! |.y{29}| :next |.y{48}|))
(define-fun .def_253 () Bool (= .def_38 |.y{58}|))
(define-fun .def_36 () (Array Int Int) (! |.y{28}| :next |.y{47}|))
(define-fun .def_251 () Bool (= .def_36 |.y{57}|))
(define-fun .def_34 () (Array Int Int) (! |.y{27}| :next |.y{46}|))
(define-fun .def_248 () Bool (= .def_34 |.y{56}|))
(define-fun .def_30 () Int (! |.y{26}| :next |.y{44}|))
(define-fun .def_245 () Bool (= .def_30 |.y{54}|))
(define-fun .def_244 () Bool (= .def_32 |.y{55}|))
(define-fun .def_246 () Bool (and .def_244 .def_245))
(define-fun .def_247 () Bool (and .def_186 .def_246))
(define-fun .def_249 () Bool (and .def_247 .def_248))
(define-fun .def_250 () Bool (and .def_77 .def_249))
(define-fun .def_252 () Bool (and .def_250 .def_251))
(define-fun .def_254 () Bool (and .def_252 .def_253))
(define-fun .def_255 () Bool (and .def_97 .def_254))
(define-fun .def_256 () Bool (and .def_60 .def_255))
(define-fun .def_257 () Bool (and .def_109 .def_256))
(define-fun .def_258 () Bool (and .def_129 .def_257))
(define-fun .def_259 () Bool (and .def_218 .def_258))
(define-fun .def_260 () Bool (and |.loc{8}| .def_259))
(define-fun .def_262 () Bool (and .def_260 .def_261))
(define-fun .def_12 () Int (! |.y{22}| :next |.y{40}|))
(define-fun .def_149 () Bool (<= .def_30 .def_12))
(define-fun .def_263 () Bool (and .def_149 .def_262))
(define-fun .def_265 () Bool (and .def_263 .def_264))
(define-fun .def_267 () Bool (and .def_265 .def_266))
(define-fun .def_269 () Bool (and .def_267 .def_268))
(define-fun .def_271 () Bool (and .def_269 .def_270))
(define-fun .def_273 () Bool (and .def_271 .def_272))
(define-fun .def_275 () Bool (and .def_273 .def_274))
(define-fun .def_277 () Bool (and .def_275 .def_276))
(define-fun .def_474 () Bool (or .def_277 .def_473))
(define-fun .def_238 () Bool (= .def_58 |.y{58}|))
(define-fun .def_234 () Bool (= .def_50 |.y{54}|))
(define-fun .def_200 () Bool (not .def_199))
(define-fun .def_188 () Bool (and .def_97 .def_187))
(define-fun .def_190 () Bool (and .def_188 .def_189))
(define-fun .def_191 () Bool (and .def_62 .def_190))
(define-fun .def_192 () Bool (and .def_159 .def_191))
(define-fun .def_194 () Bool (and .def_192 .def_193))
(define-fun .def_195 () Bool (and .def_109 .def_194))
(define-fun .def_197 () Bool (and .def_195 .def_196))
(define-fun .def_198 () Bool (and .def_117 .def_197))
(define-fun .def_201 () Bool (and .def_198 .def_200))
(define-fun .def_202 () Bool (and .def_123 .def_201))
(define-fun .def_206 () Bool (and .def_202 .def_205))
(define-fun .def_210 () Bool (and .def_206 .def_209))
(define-fun .def_214 () Bool (and .def_210 .def_213))
(define-fun .def_215 () Bool (and .def_129 .def_214))
(define-fun .def_217 () Bool (and .def_215 .def_216))
(define-fun .def_219 () Bool (and .def_217 .def_218))
(define-fun .def_220 () Bool (and |.loc{8}| .def_219))
(define-fun .def_222 () Bool (and .def_220 .def_221))
(define-fun .def_223 () Bool (and .def_136 .def_222))
(define-fun .def_228 () Bool (and .def_223 .def_227))
(define-fun .def_233 () Bool (and .def_228 .def_232))
(define-fun .def_235 () Bool (and .def_233 .def_234))
(define-fun .def_237 () Bool (and .def_235 .def_236))
(define-fun .def_239 () Bool (and .def_237 .def_238))
(define-fun .def_241 () Bool (and .def_239 .def_240))
(define-fun .def_243 () Bool (and .def_241 .def_242))
(define-fun .def_475 () Bool (or .def_243 .def_474))
(define-fun .def_477 () Bool (and .def_475 .def_476))
(define-fun .def_181 () Bool (<= |.y{43}| 0))
(define-fun .def_182 () Bool (not .def_181))
(define-fun .def_177 () Bool (<= |.y{42}| 0))
(define-fun .def_178 () Bool (not .def_177))
(define-fun .def_174 () Bool (<= |.y{41}| 0))
(define-fun .def_175 () Bool (not .def_174))
(define-fun .def_171 () Bool (<= |.x{437}| 0))
(define-fun .def_172 () Bool (not .def_171))
(define-fun .def_168 () Bool (<= |.x{432}| 0))
(define-fun .def_169 () Bool (not .def_168))
(define-fun .def_164 () Bool (<= |.x{435}| 0))
(define-fun .def_165 () Bool (not .def_164))
(define-fun .def_161 () Bool (<= |.y{44}| 0))
(define-fun .def_162 () Bool (not .def_161))
(define-fun .def_156 () Bool (<= |.y{39}| 0))
(define-fun .def_157 () Bool (not .def_156))
(define-fun .def_154 () Bool (= |.y{40}| 0))
(define-fun .def_153 () Bool (and .def_97 .def_152))
(define-fun .def_155 () Bool (and .def_153 .def_154))
(define-fun .def_158 () Bool (and .def_155 .def_157))
(define-fun .def_160 () Bool (and .def_158 .def_159))
(define-fun .def_163 () Bool (and .def_160 .def_162))
(define-fun .def_166 () Bool (and .def_163 .def_165))
(define-fun .def_167 () Bool (and .def_109 .def_166))
(define-fun .def_170 () Bool (and .def_167 .def_169))
(define-fun .def_173 () Bool (and .def_170 .def_172))
(define-fun .def_176 () Bool (and .def_173 .def_175))
(define-fun .def_179 () Bool (and .def_176 .def_178))
(define-fun .def_180 () Bool (and .def_123 .def_179))
(define-fun .def_183 () Bool (and .def_180 .def_182))
(define-fun .def_184 () Bool (and |.loc{7}| .def_183))
(define-fun .def_478 () Bool (or .def_184 .def_477))
(define-fun .def_150 () Bool (not .def_149))
(define-fun .def_146 () (Array Int Int) (store .def_14 |.x{447}| |.x{449}|))
(define-fun .def_147 () Bool (= |.x{434}| .def_146))
(define-fun .def_143 () (Array Int Int) (store .def_18 |.x{67}| |.x{449}|))
(define-fun .def_144 () Bool (= |.x{436}| .def_143))
(define-fun .def_138 () Int (* (- 1) |.y{40}|))
(define-fun .def_139 () Int (+ .def_12 .def_138))
(define-fun .def_140 () Bool (= .def_139 (- 1)))
(define-fun .def_133 () Bool (= .def_40 |.y{49}|))
(define-fun .def_131 () Bool (= .def_38 |.y{48}|))
(define-fun .def_127 () Bool (= .def_36 |.y{47}|))
(define-fun .def_125 () Bool (= .def_34 |.y{46}|))
(define-fun .def_121 () Bool (= .def_32 |.y{45}|))
(define-fun .def_119 () Bool (= .def_30 |.y{44}|))
(define-fun .def_115 () Bool (= .def_28 |.y{43}|))
(define-fun .def_113 () Bool (= .def_26 |.y{42}|))
(define-fun .def_111 () Bool (= .def_24 |.y{41}|))
(define-fun .def_107 () Bool (= .def_20 |.x{432}|))
(define-fun .def_105 () Bool (= .def_10 |.y{39}|))
(define-fun .def_100 () Bool (<= |.x{67}| 0))
(define-fun .def_101 () Bool (not .def_100))
(define-fun .def_102 () Bool (or .def_99 .def_101))
(define-fun .def_92 () Int (* (- 1) |.x{67}|))
(define-fun .def_93 () Int (+ .def_16 .def_92))
(define-fun .def_94 () Int (+ .def_12 .def_93))
(define-fun .def_95 () Bool (= .def_94 0))
(define-fun .def_79 () Bool (<= .def_10 0))
(define-fun .def_84 () Bool (not .def_79))
(define-fun .def_82 () Bool (or .def_79 .def_81))
(define-fun .def_74 () Int (+ .def_12 .def_73))
(define-fun .def_75 () Int (+ .def_10 .def_74))
(define-fun .def_76 () Bool (= .def_75 0))
(define-fun .def_78 () Bool (and .def_76 .def_77))
(define-fun .def_83 () Bool (and .def_78 .def_82))
(define-fun .def_85 () Bool (and .def_83 .def_84))
(define-fun .def_87 () Bool (and .def_85 .def_86))
(define-fun .def_96 () Bool (and .def_87 .def_95))
(define-fun .def_98 () Bool (and .def_96 .def_97))
(define-fun .def_103 () Bool (and .def_98 .def_102))
(define-fun .def_104 () Bool (and .def_60 .def_103))
(define-fun .def_106 () Bool (and .def_104 .def_105))
(define-fun .def_108 () Bool (and .def_106 .def_107))
(define-fun .def_110 () Bool (and .def_108 .def_109))
(define-fun .def_112 () Bool (and .def_110 .def_111))
(define-fun .def_114 () Bool (and .def_112 .def_113))
(define-fun .def_116 () Bool (and .def_114 .def_115))
(define-fun .def_118 () Bool (and .def_116 .def_117))
(define-fun .def_120 () Bool (and .def_118 .def_119))
(define-fun .def_122 () Bool (and .def_120 .def_121))
(define-fun .def_124 () Bool (and .def_122 .def_123))
(define-fun .def_126 () Bool (and .def_124 .def_125))
(define-fun .def_128 () Bool (and .def_126 .def_127))
(define-fun .def_130 () Bool (and .def_128 .def_129))
(define-fun .def_132 () Bool (and .def_130 .def_131))
(define-fun .def_134 () Bool (and .def_132 .def_133))
(define-fun .def_135 () Bool (and |.loc{7}| .def_134))
(define-fun .def_137 () Bool (and .def_135 .def_136))
(define-fun .def_141 () Bool (and .def_137 .def_140))
(define-fun .def_145 () Bool (and .def_141 .def_144))
(define-fun .def_148 () Bool (and .def_145 .def_147))
(define-fun .def_151 () Bool (and .def_148 .def_150))
(define-fun .def_479 () Bool (! (or .def_151 .def_478) :trans true))
(define-fun .def_482 () Int (! |.x{473}| :next |.xpv{1}|))
(define-fun .def_490 () Int (! |.x{471}| :next |.xpv{2}|))
(define-fun .def_509 () Bool (and .def_60 .def_62))
(define-fun .def_510 () Bool (and .def_64 .def_509))
(define-fun .def_505 () Int (select .def_18 .def_482))
(define-fun .def_504 () Int (select .def_14 .def_490))
(define-fun .def_506 () Bool (= .def_504 .def_505))
(define-fun .def_507 () Bool (not .def_506))
(define-fun .def_494 () Int (* (- 1) .def_490))
(define-fun .def_495 () Int (+ .def_20 .def_494))
(define-fun .def_496 () Int (+ .def_8 .def_495))
(define-fun .def_497 () Bool (= .def_496 0))
(define-fun .def_498 () Bool (and .def_437 .def_497))
(define-fun .def_491 () Bool (<= .def_490 0))
(define-fun .def_492 () Bool (not .def_491))
(define-fun .def_493 () Bool (or .def_442 .def_492))
(define-fun .def_499 () Bool (and .def_493 .def_498))
(define-fun .def_500 () Bool (and .def_445 .def_499))
(define-fun .def_486 () Int (* (- 1) .def_482))
(define-fun .def_487 () Int (+ .def_20 .def_486))
(define-fun .def_488 () Int (+ .def_16 .def_487))
(define-fun .def_489 () Bool (= .def_488 0))
(define-fun .def_501 () Bool (and .def_489 .def_500))
(define-fun .def_483 () Bool (<= .def_482 0))
(define-fun .def_484 () Bool (not .def_483))
(define-fun .def_485 () Bool (or .def_99 .def_484))
(define-fun .def_502 () Bool (and .def_485 .def_501))
(define-fun .def_503 () Bool (and .def_117 .def_502))
(define-fun .def_508 () Bool (and .def_503 .def_507))
(define-fun .def_511 () Bool (and .def_508 .def_510))
(define-fun .def_514 () Bool (! (not .def_511) :invar-property 0))
(assert true)
